p tw 48 3121 2 
1 25 
1 28 
1 30 
1 32 
1 34 
1 36 
1 38 
1 40 
1 42 
1 44 
1 46 
1 48 
2 26 
2 27 
2 29 
2 31 
2 33 
2 35 
2 37 
2 39 
2 41 
2 43 
2 45 
2 47 
3 4 
3 25 
3 27 
3 30 
3 31 
3 34 
3 36 
3 38 
3 39 
3 41 
3 43 
3 46 
3 47 
4 26 
4 28 
4 29 
4 32 
4 33 
4 35 
4 37 
4 40 
4 42 
4 44 
4 45 
4 48 
5 6 
5 25 
5 27 
5 29 
5 32 
5 33 
5 36 
5 38 
5 40 
5 41 
5 43 
5 45 
5 48 
6 26 
6 28 
6 30 
6 31 
6 34 
6 35 
6 37 
6 39 
6 42 
6 44 
6 46 
6 47 
7 8 
7 25 
7 28 
7 29 
7 31 
7 34 
7 35 
7 38 
7 40 
7 42 
7 43 
7 45 
7 47 
8 26 
8 27 
8 30 
8 32 
8 33 
8 36 
8 37 
8 39 
8 41 
8 44 
8 46 
8 48 
9 10 
9 25 
9 27 
9 30 
9 31 
9 33 
9 36 
9 37 
9 40 
9 42 
9 44 
9 45 
9 47 
10 26 
10 28 
10 29 
10 32 
10 34 
10 35 
10 38 
10 39 
10 41 
10 43 
10 46 
10 48 
11 12 
11 25 
11 27 
11 29 
11 32 
11 33 
11 35 
11 38 
11 39 
11 42 
11 44 
11 46 
11 47 
12 26 
12 28 
12 30 
12 31 
12 34 
12 36 
12 37 
12 40 
12 41 
12 43 
12 45 
12 48 
13 14 
13 25 
13 27 
13 29 
13 31 
13 34 
13 35 
13 37 
13 40 
13 41 
13 44 
13 46 
13 48 
14 26 
14 28 
14 30 
14 32 
14 33 
14 36 
14 38 
14 39 
14 42 
14 43 
14 45 
14 47 
15 16 
15 25 
15 28 
15 29 
15 31 
15 33 
15 36 
15 37 
15 39 
15 42 
15 43 
15 46 
15 48 
16 26 
16 27 
16 30 
16 32 
16 34 
16 35 
16 38 
16 40 
16 41 
16 44 
16 45 
16 47 
17 18 
17 25 
17 28 
17 30 
17 31 
17 33 
17 35 
17 38 
17 39 
17 41 
17 44 
17 45 
17 48 
18 26 
18 27 
18 29 
18 32 
18 34 
18 36 
18 37 
18 40 
18 42 
18 43 
18 46 
18 47 
19 20 
19 25 
19 28 
19 30 
19 32 
19 33 
19 35 
19 37 
19 40 
19 41 
19 43 
19 46 
19 47 
20 26 
20 27 
20 29 
20 31 
20 34 
20 36 
20 38 
20 39 
20 42 
20 44 
20 45 
20 48 
21 22 
21 25 
21 27 
21 30 
21 32 
21 34 
21 35 
21 37 
21 39 
21 42 
21 43 
21 45 
21 48 
22 26 
22 28 
22 29 
22 31 
22 33 
22 36 
22 38 
22 40 
22 41 
22 44 
22 46 
22 47 
23 24 
23 25 
23 28 
23 29 
23 32 
23 34 
23 36 
23 37 
23 39 
23 41 
23 44 
23 45 
23 47 
24 26 
24 27 
24 30 
24 31 
24 33 
24 35 
24 38 
24 40 
24 42 
24 43 
24 46 
24 48 
25 26 
27 28 
29 30 
31 32 
33 34 
35 36 
37 38 
39 40 
41 42 
43 44 
45 46 
47 48 
